38227 39778 
38310 39756 
38596 39642 
39073 39321 
39325 39163 
38122 39844 
38531 39683 
38820 39504 
39638 38922 
39792 38853 
38948 39390 
39492 39019 
38137 39838 
37562 40086 
38057 39885 
37429 40202 
39218 39247 
40026 38731 
37817 40011 
40915 37862 
